WARNING: for repeatability, setting FPU to use double precision
============================[ Problem Statistics ]=============================
|                                                                             |
|  Number of variables:        223091                                         |
|  Number of clauses:          506421                                         |
|  Parse time:                   0.16 s                                       |
|                                                                             |
============================[ Search Statistics ]==============================
| Conflicts |          ORIGINAL         |          LEARNT          | Progress |
|           |    Vars  Clauses Literals |    Limit  Clauses Lit/Cl |          |
===============================================================================
|       100 |  121606   483542  1088090 |   177298      100     13 | 45.490 % |
|       250 |  121606   483542  1088090 |   195028      250     29 | 45.490 % |
|       475 |  121606   483542  1088090 |   214531      475     26 | 45.490 % |
|       812 |  121606   483542  1088090 |   235984      812     25 | 45.490 % |
===============================================================================
restarts              : 7
conflicts             : 1146           (1962 /sec)
decisions             : 16545          (0.00 % random) (28329 /sec)
propagations          : 2975729        (5095112 /sec)
conflict literals     : 33597          (7.33 % deleted)
Memory used           : 57.00 MB
CPU time              : 0.584036 s

SATISFIABLE
